Minimize
color_reps: x0,0 + x1,1 + x2,2 + x3,3 + x4,4 + x5,5 + x6,6 + x7,7 + x8,8 + x9,9 + x10,10 + x11,11 + x12,12 + x13,13 + x14,14 + x15,15 + x16,16 + x17,17 + x18,18 + x19,19 + x20,20 + x21,21 + x22,22 + x23,23 + x24,24 + x25,25 + x26,26 + x27,27 + x28,28 + x29,29
Subject To
rep0: x0,0 + x4,0 + x5,0 + x6,0 + x10,0 + x12,0 + x13,0 + x21,0 >= 1
rep1: x1,1 + x4,1 + x10,1 + x17,1 + x24,1 >= 1
rep2: x2,2 + x6,2 + x11,2 + x13,2 + x14,2 + x18,2 + x24,2 + x28,2 >= 1
rep3: x3,3 + x4,3 + x10,3 + x13,3 + x27,3 + x28,3 >= 1
rep4: x4,4 + x0,4 + x1,4 + x3,4 + x13,4 + x17,4 + x18,4 + x23,4 + x24,4 + x25,4 >= 1
rep5: x5,5 + x0,5 + x7,5 + x8,5 + x9,5 + x10,5 + x24,5 + x25,5 >= 1
rep6: x6,6 + x0,6 + x2,6 + x18,6 + x24,6 + x29,6 >= 1
rep7: x7,7 + x5,7 + x8,7 + x19,7 + x24,7 >= 1
rep8: x8,8 + x5,8 + x7,8 + x16,8 + x22,8 + x25,8 + x26,8 + x28,8 >= 1
rep9: x9,9 + x5,9 + x11,9 + x13,9 + x18,9 + x20,9 + x21,9 + x24,9 + x26,9 >= 1
rep10: x10,10 + x0,10 + x1,10 + x3,10 + x5,10 + x15,10 + x16,10 + x18,10 + x21,10 + x25,10 >= 1
rep11: x11,11 + x2,11 + x9,11 + x18,11 + x23,11 + x24,11 >= 1
rep12: x12,12 + x0,12 + x14,12 + x19,12 + x20,12 + x21,12 + x23,12 >= 1
rep13: x13,13 + x0,13 + x2,13 + x3,13 + x4,13 + x9,13 + x17,13 + x22,13 + x25,13 + x28,13 >= 1
rep14: x14,14 + x2,14 + x12,14 + x17,14 + x18,14 >= 1
rep15: x15,15 + x10,15 + x20,15 + x21,15 + x25,15 >= 1
rep16: x16,16 + x8,16 + x10,16 + x17,16 + x20,16 + x22,16 >= 1
rep17: x17,17 + x1,17 + x4,17 + x13,17 + x14,17 + x16,17 + x23,17 + x25,17 + x27,17 >= 1
rep18: x18,18 + x2,18 + x4,18 + x6,18 + x9,18 + x10,18 + x11,18 + x14,18 + x20,18 + x22,18 + x24,18 + x29,18 >= 1
rep19: x19,19 + x7,19 + x12,19 + x24,19 + x26,19 + x27,19 + x28,19 + x29,19 >= 1
rep20: x20,20 + x9,20 + x12,20 + x15,20 + x16,20 + x18,20 >= 1
rep21: x21,21 + x0,21 + x9,21 + x10,21 + x12,21 + x15,21 + x23,21 >= 1
rep22: x22,22 + x8,22 + x13,22 + x16,22 + x18,22 + x24,22 + x28,22 >= 1
rep23: x23,23 + x4,23 + x11,23 + x12,23 + x17,23 + x21,23 >= 1
rep24: x24,24 + x1,24 + x2,24 + x4,24 + x5,24 + x6,24 + x7,24 + x9,24 + x11,24 + x18,24 + x19,24 + x22,24 + x25,24 + x26,24 + x28,24 + x29,24 >= 1
rep25: x25,25 + x4,25 + x5,25 + x8,25 + x10,25 + x13,25 + x15,25 + x17,25 + x24,25 >= 1
rep26: x26,26 + x8,26 + x9,26 + x19,26 + x24,26 + x28,26 >= 1
rep27: x27,27 + x3,27 + x17,27 + x19,27 + x29,27 >= 1
rep28: x28,28 + x2,28 + x3,28 + x8,28 + x13,28 + x19,28 + x22,28 + x24,28 + x26,28 >= 1
rep29: x29,29 + x6,29 + x18,29 + x19,29 + x24,29 + x27,29 >= 1
uqrep0_4,5: x0,4 + x0,5 - x0,0 <= 0
uqrep0_4,6: x0,4 + x0,6 - x0,0 <= 0
uqrep0_4,10: x0,4 + x0,10 - x0,0 <= 0
uqrep0_4,12: x0,4 + x0,12 - x0,0 <= 0
uqrep0_4,21: x0,4 + x0,21 - x0,0 <= 0
uqrep0_5,6: x0,5 + x0,6 - x0,0 <= 0
uqrep0_5,12: x0,5 + x0,12 - x0,0 <= 0
uqrep0_5,13: x0,5 + x0,13 - x0,0 <= 0
uqrep0_5,21: x0,5 + x0,21 - x0,0 <= 0
uqrep0_6,10: x0,6 + x0,10 - x0,0 <= 0
uqrep0_6,12: x0,6 + x0,12 - x0,0 <= 0
uqrep0_6,13: x0,6 + x0,13 - x0,0 <= 0
uqrep0_6,21: x0,6 + x0,21 - x0,0 <= 0
uqrep0_10,12: x0,10 + x0,12 - x0,0 <= 0
uqrep0_10,13: x0,10 + x0,13 - x0,0 <= 0
uqrep0_12,13: x0,12 + x0,13 - x0,0 <= 0
uqrep0_13,21: x0,13 + x0,21 - x0,0 <= 0
uqrep1_24,10: x1,24 + x1,10 - x1,1 <= 0
uqrep1_24,17: x1,24 + x1,17 - x1,1 <= 0
uqrep1_17,10: x1,17 + x1,10 - x1,1 <= 0
uqrep1_10,4: x1,10 + x1,4 - x1,1 <= 0
uqrep2_6,11: x2,6 + x2,11 - x2,2 <= 0
uqrep2_6,13: x2,6 + x2,13 - x2,2 <= 0
uqrep2_6,14: x2,6 + x2,14 - x2,2 <= 0
uqrep2_6,28: x2,6 + x2,28 - x2,2 <= 0
uqrep2_11,13: x2,11 + x2,13 - x2,2 <= 0
uqrep2_11,14: x2,11 + x2,14 - x2,2 <= 0
uqrep2_11,28: x2,11 + x2,28 - x2,2 <= 0
uqrep2_13,14: x2,13 + x2,14 - x2,2 <= 0
uqrep2_13,18: x2,13 + x2,18 - x2,2 <= 0
uqrep2_13,24: x2,13 + x2,24 - x2,2 <= 0
uqrep2_14,24: x2,14 + x2,24 - x2,2 <= 0
uqrep2_14,28: x2,14 + x2,28 - x2,2 <= 0
uqrep2_18,28: x2,18 + x2,28 - x2,2 <= 0
uqrep3_4,10: x3,4 + x3,10 - x3,3 <= 0
uqrep3_4,27: x3,4 + x3,27 - x3,3 <= 0
uqrep3_4,28: x3,4 + x3,28 - x3,3 <= 0
uqrep3_10,13: x3,10 + x3,13 - x3,3 <= 0
uqrep3_10,27: x3,10 + x3,27 - x3,3 <= 0
uqrep3_10,28: x3,10 + x3,28 - x3,3 <= 0
uqrep3_27,13: x3,27 + x3,13 - x3,3 <= 0
uqrep3_27,28: x3,27 + x3,28 - x3,3 <= 0
uqrep4_0,1: x4,0 + x4,1 - x4,4 <= 0
uqrep4_0,3: x4,0 + x4,3 - x4,4 <= 0
uqrep4_0,17: x4,0 + x4,17 - x4,4 <= 0
uqrep4_0,18: x4,0 + x4,18 - x4,4 <= 0
uqrep4_0,23: x4,0 + x4,23 - x4,4 <= 0
uqrep4_0,24: x4,0 + x4,24 - x4,4 <= 0
uqrep4_0,25: x4,0 + x4,25 - x4,4 <= 0
uqrep4_1,3: x4,1 + x4,3 - x4,4 <= 0
uqrep4_1,13: x4,1 + x4,13 - x4,4 <= 0
uqrep4_1,18: x4,1 + x4,18 - x4,4 <= 0
uqrep4_1,23: x4,1 + x4,23 - x4,4 <= 0
uqrep4_1,25: x4,1 + x4,25 - x4,4 <= 0
uqrep4_3,17: x4,3 + x4,17 - x4,4 <= 0
uqrep4_3,18: x4,3 + x4,18 - x4,4 <= 0
uqrep4_3,23: x4,3 + x4,23 - x4,4 <= 0
uqrep4_3,24: x4,3 + x4,24 - x4,4 <= 0
uqrep4_3,25: x4,3 + x4,25 - x4,4 <= 0
uqrep4_13,18: x4,13 + x4,18 - x4,4 <= 0
uqrep4_13,23: x4,13 + x4,23 - x4,4 <= 0
uqrep4_13,24: x4,13 + x4,24 - x4,4 <= 0
uqrep4_17,18: x4,17 + x4,18 - x4,4 <= 0
uqrep4_17,24: x4,17 + x4,24 - x4,4 <= 0
uqrep4_18,23: x4,18 + x4,23 - x4,4 <= 0
uqrep4_18,25: x4,18 + x4,25 - x4,4 <= 0
uqrep4_23,24: x4,23 + x4,24 - x4,4 <= 0
uqrep4_23,25: x4,23 + x4,25 - x4,4 <= 0
uqrep5_0,7: x5,0 + x5,7 - x5,5 <= 0
uqrep5_0,8: x5,0 + x5,8 - x5,5 <= 0
uqrep5_0,9: x5,0 + x5,9 - x5,5 <= 0
uqrep5_0,24: x5,0 + x5,24 - x5,5 <= 0
uqrep5_0,25: x5,0 + x5,25 - x5,5 <= 0
uqrep5_7,9: x5,7 + x5,9 - x5,5 <= 0
uqrep5_7,10: x5,7 + x5,10 - x5,5 <= 0
uqrep5_7,25: x5,7 + x5,25 - x5,5 <= 0
uqrep5_8,9: x5,8 + x5,9 - x5,5 <= 0
uqrep5_8,10: x5,8 + x5,10 - x5,5 <= 0
uqrep5_8,24: x5,8 + x5,24 - x5,5 <= 0
uqrep5_9,10: x5,9 + x5,10 - x5,5 <= 0
uqrep5_9,25: x5,9 + x5,25 - x5,5 <= 0
uqrep5_10,24: x5,10 + x5,24 - x5,5 <= 0
uqrep6_0,2: x6,0 + x6,2 - x6,6 <= 0
uqrep6_0,18: x6,0 + x6,18 - x6,6 <= 0
uqrep6_0,24: x6,0 + x6,24 - x6,6 <= 0
uqrep6_0,29: x6,0 + x6,29 - x6,6 <= 0
uqrep6_2,29: x6,2 + x6,29 - x6,6 <= 0
uqrep7_8,19: x7,8 + x7,19 - x7,7 <= 0
uqrep7_8,24: x7,8 + x7,24 - x7,7 <= 0
uqrep7_19,5: x7,19 + x7,5 - x7,7 <= 0
uqrep8_5,16: x8,5 + x8,16 - x8,8 <= 0
uqrep8_5,22: x8,5 + x8,22 - x8,8 <= 0
uqrep8_5,26: x8,5 + x8,26 - x8,8 <= 0
uqrep8_5,28: x8,5 + x8,28 - x8,8 <= 0
uqrep8_7,16: x8,7 + x8,16 - x8,8 <= 0
uqrep8_7,22: x8,7 + x8,22 - x8,8 <= 0
uqrep8_7,25: x8,7 + x8,25 - x8,8 <= 0
uqrep8_7,26: x8,7 + x8,26 - x8,8 <= 0
uqrep8_7,28: x8,7 + x8,28 - x8,8 <= 0
uqrep8_16,25: x8,16 + x8,25 - x8,8 <= 0
uqrep8_16,26: x8,16 + x8,26 - x8,8 <= 0
uqrep8_16,28: x8,16 + x8,28 - x8,8 <= 0
uqrep8_22,25: x8,22 + x8,25 - x8,8 <= 0
uqrep8_22,26: x8,22 + x8,26 - x8,8 <= 0
uqrep8_25,26: x8,25 + x8,26 - x8,8 <= 0
uqrep8_25,28: x8,25 + x8,28 - x8,8 <= 0
uqrep9_5,11: x9,5 + x9,11 - x9,9 <= 0
uqrep9_5,13: x9,5 + x9,13 - x9,9 <= 0
uqrep9_5,18: x9,5 + x9,18 - x9,9 <= 0
uqrep9_5,20: x9,5 + x9,20 - x9,9 <= 0
uqrep9_5,21: x9,5 + x9,21 - x9,9 <= 0
uqrep9_5,26: x9,5 + x9,26 - x9,9 <= 0
uqrep9_11,13: x9,11 + x9,13 - x9,9 <= 0
uqrep9_11,20: x9,11 + x9,20 - x9,9 <= 0
uqrep9_11,21: x9,11 + x9,21 - x9,9 <= 0
uqrep9_11,26: x9,11 + x9,26 - x9,9 <= 0
uqrep9_13,18: x9,13 + x9,18 - x9,9 <= 0
uqrep9_13,20: x9,13 + x9,20 - x9,9 <= 0
uqrep9_13,21: x9,13 + x9,21 - x9,9 <= 0
uqrep9_13,24: x9,13 + x9,24 - x9,9 <= 0
uqrep9_13,26: x9,13 + x9,26 - x9,9 <= 0
uqrep9_18,21: x9,18 + x9,21 - x9,9 <= 0
uqrep9_18,26: x9,18 + x9,26 - x9,9 <= 0
uqrep9_20,21: x9,20 + x9,21 - x9,9 <= 0
uqrep9_20,24: x9,20 + x9,24 - x9,9 <= 0
uqrep9_20,26: x9,20 + x9,26 - x9,9 <= 0
uqrep9_21,24: x9,21 + x9,24 - x9,9 <= 0
uqrep9_21,26: x9,21 + x9,26 - x9,9 <= 0
uqrep10_0,1: x10,0 + x10,1 - x10,10 <= 0
uqrep10_0,3: x10,0 + x10,3 - x10,10 <= 0
uqrep10_0,15: x10,0 + x10,15 - x10,10 <= 0
uqrep10_0,16: x10,0 + x10,16 - x10,10 <= 0
uqrep10_0,18: x10,0 + x10,18 - x10,10 <= 0
uqrep10_0,25: x10,0 + x10,25 - x10,10 <= 0
uqrep10_1,3: x10,1 + x10,3 - x10,10 <= 0
uqrep10_1,5: x10,1 + x10,5 - x10,10 <= 0
uqrep10_1,15: x10,1 + x10,15 - x10,10 <= 0
uqrep10_1,16: x10,1 + x10,16 - x10,10 <= 0
uqrep10_1,18: x10,1 + x10,18 - x10,10 <= 0
uqrep10_1,21: x10,1 + x10,21 - x10,10 <= 0
uqrep10_1,25: x10,1 + x10,25 - x10,10 <= 0
uqrep10_3,5: x10,3 + x10,5 - x10,10 <= 0
uqrep10_3,15: x10,3 + x10,15 - x10,10 <= 0
uqrep10_3,16: x10,3 + x10,16 - x10,10 <= 0
uqrep10_3,18: x10,3 + x10,18 - x10,10 <= 0
uqrep10_3,21: x10,3 + x10,21 - x10,10 <= 0
uqrep10_3,25: x10,3 + x10,25 - x10,10 <= 0
uqrep10_5,15: x10,5 + x10,15 - x10,10 <= 0
uqrep10_5,16: x10,5 + x10,16 - x10,10 <= 0
uqrep10_5,18: x10,5 + x10,18 - x10,10 <= 0
uqrep10_5,21: x10,5 + x10,21 - x10,10 <= 0
uqrep10_15,16: x10,15 + x10,16 - x10,10 <= 0
uqrep10_15,18: x10,15 + x10,18 - x10,10 <= 0
uqrep10_16,18: x10,16 + x10,18 - x10,10 <= 0
uqrep10_16,21: x10,16 + x10,21 - x10,10 <= 0
uqrep10_16,25: x10,16 + x10,25 - x10,10 <= 0
uqrep10_18,21: x10,18 + x10,21 - x10,10 <= 0
uqrep10_18,25: x10,18 + x10,25 - x10,10 <= 0
uqrep10_21,25: x10,21 + x10,25 - x10,10 <= 0
uqrep11_24,23: x11,24 + x11,23 - x11,11 <= 0
uqrep11_9,2: x11,9 + x11,2 - x11,11 <= 0
uqrep11_9,23: x11,9 + x11,23 - x11,11 <= 0
uqrep11_2,23: x11,2 + x11,23 - x11,11 <= 0
uqrep11_18,23: x11,18 + x11,23 - x11,11 <= 0
uqrep12_0,14: x12,0 + x12,14 - x12,12 <= 0
uqrep12_0,19: x12,0 + x12,19 - x12,12 <= 0
uqrep12_0,20: x12,0 + x12,20 - x12,12 <= 0
uqrep12_0,23: x12,0 + x12,23 - x12,12 <= 0
uqrep12_14,19: x12,14 + x12,19 - x12,12 <= 0
uqrep12_14,20: x12,14 + x12,20 - x12,12 <= 0
uqrep12_14,21: x12,14 + x12,21 - x12,12 <= 0
uqrep12_14,23: x12,14 + x12,23 - x12,12 <= 0
uqrep12_19,20: x12,19 + x12,20 - x12,12 <= 0
uqrep12_19,21: x12,19 + x12,21 - x12,12 <= 0
uqrep12_19,23: x12,19 + x12,23 - x12,12 <= 0
uqrep12_20,21: x12,20 + x12,21 - x12,12 <= 0
uqrep12_20,23: x12,20 + x12,23 - x12,12 <= 0
uqrep13_0,2: x13,0 + x13,2 - x13,13 <= 0
uqrep13_0,3: x13,0 + x13,3 - x13,13 <= 0
uqrep13_0,9: x13,0 + x13,9 - x13,13 <= 0
uqrep13_0,17: x13,0 + x13,17 - x13,13 <= 0
uqrep13_0,22: x13,0 + x13,22 - x13,13 <= 0
uqrep13_0,25: x13,0 + x13,25 - x13,13 <= 0
uqrep13_0,28: x13,0 + x13,28 - x13,13 <= 0
uqrep13_2,3: x13,2 + x13,3 - x13,13 <= 0
uqrep13_2,4: x13,2 + x13,4 - x13,13 <= 0
uqrep13_2,9: x13,2 + x13,9 - x13,13 <= 0
uqrep13_2,17: x13,2 + x13,17 - x13,13 <= 0
uqrep13_2,22: x13,2 + x13,22 - x13,13 <= 0
uqrep13_2,25: x13,2 + x13,25 - x13,13 <= 0
uqrep13_3,9: x13,3 + x13,9 - x13,13 <= 0
uqrep13_3,17: x13,3 + x13,17 - x13,13 <= 0
uqrep13_3,22: x13,3 + x13,22 - x13,13 <= 0
uqrep13_3,25: x13,3 + x13,25 - x13,13 <= 0
uqrep13_4,9: x13,4 + x13,9 - x13,13 <= 0
uqrep13_4,22: x13,4 + x13,22 - x13,13 <= 0
uqrep13_4,28: x13,4 + x13,28 - x13,13 <= 0
uqrep13_9,17: x13,9 + x13,17 - x13,13 <= 0
uqrep13_9,22: x13,9 + x13,22 - x13,13 <= 0
uqrep13_9,25: x13,9 + x13,25 - x13,13 <= 0
uqrep13_9,28: x13,9 + x13,28 - x13,13 <= 0
uqrep13_17,22: x13,17 + x13,22 - x13,13 <= 0
uqrep13_17,28: x13,17 + x13,28 - x13,13 <= 0
uqrep13_22,25: x13,22 + x13,25 - x13,13 <= 0
uqrep13_25,28: x13,25 + x13,28 - x13,13 <= 0
uqrep14_17,2: x14,17 + x14,2 - x14,14 <= 0
uqrep14_17,12: x14,17 + x14,12 - x14,14 <= 0
uqrep14_17,18: x14,17 + x14,18 - x14,14 <= 0
uqrep14_2,12: x14,2 + x14,12 - x14,14 <= 0
uqrep14_12,18: x14,12 + x14,18 - x14,14 <= 0
uqrep15_25,20: x15,25 + x15,20 - x15,15 <= 0
uqrep15_25,21: x15,25 + x15,21 - x15,15 <= 0
uqrep15_10,20: x15,10 + x15,20 - x15,15 <= 0
uqrep15_20,21: x15,20 + x15,21 - x15,15 <= 0
uqrep16_8,10: x16,8 + x16,10 - x16,16 <= 0
uqrep16_8,17: x16,8 + x16,17 - x16,16 <= 0
uqrep16_8,20: x16,8 + x16,20 - x16,16 <= 0
uqrep16_17,10: x16,17 + x16,10 - x16,16 <= 0
uqrep16_17,20: x16,17 + x16,20 - x16,16 <= 0
uqrep16_17,22: x16,17 + x16,22 - x16,16 <= 0
uqrep16_10,20: x16,10 + x16,20 - x16,16 <= 0
uqrep16_10,22: x16,10 + x16,22 - x16,16 <= 0
uqrep16_20,22: x16,20 + x16,22 - x16,16 <= 0
uqrep17_1,13: x17,1 + x17,13 - x17,17 <= 0
uqrep17_1,14: x17,1 + x17,14 - x17,17 <= 0
uqrep17_1,16: x17,1 + x17,16 - x17,17 <= 0
uqrep17_1,23: x17,1 + x17,23 - x17,17 <= 0
uqrep17_1,25: x17,1 + x17,25 - x17,17 <= 0
uqrep17_1,27: x17,1 + x17,27 - x17,17 <= 0
uqrep17_4,14: x17,4 + x17,14 - x17,17 <= 0
uqrep17_4,16: x17,4 + x17,16 - x17,17 <= 0
uqrep17_4,27: x17,4 + x17,27 - x17,17 <= 0
uqrep17_13,14: x17,13 + x17,14 - x17,17 <= 0
uqrep17_13,16: x17,13 + x17,16 - x17,17 <= 0
uqrep17_13,23: x17,13 + x17,23 - x17,17 <= 0
uqrep17_13,27: x17,13 + x17,27 - x17,17 <= 0
uqrep17_14,16: x17,14 + x17,16 - x17,17 <= 0
uqrep17_14,23: x17,14 + x17,23 - x17,17 <= 0
uqrep17_14,25: x17,14 + x17,25 - x17,17 <= 0
uqrep17_14,27: x17,14 + x17,27 - x17,17 <= 0
uqrep17_16,23: x17,16 + x17,23 - x17,17 <= 0
uqrep17_16,25: x17,16 + x17,25 - x17,17 <= 0
uqrep17_16,27: x17,16 + x17,27 - x17,17 <= 0
uqrep17_23,25: x17,23 + x17,25 - x17,17 <= 0
uqrep17_23,27: x17,23 + x17,27 - x17,17 <= 0
uqrep17_25,27: x17,25 + x17,27 - x17,17 <= 0
uqrep18_2,4: x18,2 + x18,4 - x18,18 <= 0
uqrep18_2,9: x18,2 + x18,9 - x18,18 <= 0
uqrep18_2,10: x18,2 + x18,10 - x18,18 <= 0
uqrep18_2,20: x18,2 + x18,20 - x18,18 <= 0
uqrep18_2,22: x18,2 + x18,22 - x18,18 <= 0
uqrep18_2,29: x18,2 + x18,29 - x18,18 <= 0
uqrep18_4,6: x18,4 + x18,6 - x18,18 <= 0
uqrep18_4,9: x18,4 + x18,9 - x18,18 <= 0
uqrep18_4,10: x18,4 + x18,10 - x18,18 <= 0
uqrep18_4,11: x18,4 + x18,11 - x18,18 <= 0
uqrep18_4,14: x18,4 + x18,14 - x18,18 <= 0
uqrep18_4,20: x18,4 + x18,20 - x18,18 <= 0
uqrep18_4,22: x18,4 + x18,22 - x18,18 <= 0
uqrep18_4,29: x18,4 + x18,29 - x18,18 <= 0
uqrep18_6,9: x18,6 + x18,9 - x18,18 <= 0
uqrep18_6,10: x18,6 + x18,10 - x18,18 <= 0
uqrep18_6,11: x18,6 + x18,11 - x18,18 <= 0
uqrep18_6,14: x18,6 + x18,14 - x18,18 <= 0
uqrep18_6,20: x18,6 + x18,20 - x18,18 <= 0
uqrep18_6,22: x18,6 + x18,22 - x18,18 <= 0
uqrep18_9,10: x18,9 + x18,10 - x18,18 <= 0
uqrep18_9,14: x18,9 + x18,14 - x18,18 <= 0
uqrep18_9,22: x18,9 + x18,22 - x18,18 <= 0
uqrep18_9,29: x18,9 + x18,29 - x18,18 <= 0
uqrep18_10,11: x18,10 + x18,11 - x18,18 <= 0
uqrep18_10,14: x18,10 + x18,14 - x18,18 <= 0
uqrep18_10,20: x18,10 + x18,20 - x18,18 <= 0
uqrep18_10,22: x18,10 + x18,22 - x18,18 <= 0
uqrep18_10,24: x18,10 + x18,24 - x18,18 <= 0
uqrep18_10,29: x18,10 + x18,29 - x18,18 <= 0
uqrep18_11,14: x18,11 + x18,14 - x18,18 <= 0
uqrep18_11,20: x18,11 + x18,20 - x18,18 <= 0
uqrep18_11,22: x18,11 + x18,22 - x18,18 <= 0
uqrep18_11,29: x18,11 + x18,29 - x18,18 <= 0
uqrep18_14,20: x18,14 + x18,20 - x18,18 <= 0
uqrep18_14,22: x18,14 + x18,22 - x18,18 <= 0
uqrep18_14,24: x18,14 + x18,24 - x18,18 <= 0
uqrep18_14,29: x18,14 + x18,29 - x18,18 <= 0
uqrep18_20,22: x18,20 + x18,22 - x18,18 <= 0
uqrep18_20,24: x18,20 + x18,24 - x18,18 <= 0
uqrep18_20,29: x18,20 + x18,29 - x18,18 <= 0
uqrep18_22,29: x18,22 + x18,29 - x18,18 <= 0
uqrep19_7,12: x19,7 + x19,12 - x19,19 <= 0
uqrep19_7,26: x19,7 + x19,26 - x19,19 <= 0
uqrep19_7,27: x19,7 + x19,27 - x19,19 <= 0
uqrep19_7,28: x19,7 + x19,28 - x19,19 <= 0
uqrep19_7,29: x19,7 + x19,29 - x19,19 <= 0
uqrep19_12,24: x19,12 + x19,24 - x19,19 <= 0
uqrep19_12,26: x19,12 + x19,26 - x19,19 <= 0
uqrep19_12,27: x19,12 + x19,27 - x19,19 <= 0
uqrep19_12,28: x19,12 + x19,28 - x19,19 <= 0
uqrep19_12,29: x19,12 + x19,29 - x19,19 <= 0
uqrep19_24,27: x19,24 + x19,27 - x19,19 <= 0
uqrep19_26,27: x19,26 + x19,27 - x19,19 <= 0
uqrep19_26,29: x19,26 + x19,29 - x19,19 <= 0
uqrep19_27,28: x19,27 + x19,28 - x19,19 <= 0
uqrep19_28,29: x19,28 + x19,29 - x19,19 <= 0
uqrep20_16,9: x20,16 + x20,9 - x20,20 <= 0
uqrep20_16,12: x20,16 + x20,12 - x20,20 <= 0
uqrep20_16,15: x20,16 + x20,15 - x20,20 <= 0
uqrep20_16,18: x20,16 + x20,18 - x20,20 <= 0
uqrep20_9,12: x20,9 + x20,12 - x20,20 <= 0
uqrep20_9,15: x20,9 + x20,15 - x20,20 <= 0
uqrep20_18,12: x20,18 + x20,12 - x20,20 <= 0
uqrep20_18,15: x20,18 + x20,15 - x20,20 <= 0
uqrep20_12,15: x20,12 + x20,15 - x20,20 <= 0
uqrep21_0,9: x21,0 + x21,9 - x21,21 <= 0
uqrep21_0,15: x21,0 + x21,15 - x21,21 <= 0
uqrep21_0,23: x21,0 + x21,23 - x21,21 <= 0
uqrep21_9,10: x21,9 + x21,10 - x21,21 <= 0
uqrep21_9,12: x21,9 + x21,12 - x21,21 <= 0
uqrep21_9,15: x21,9 + x21,15 - x21,21 <= 0
uqrep21_9,23: x21,9 + x21,23 - x21,21 <= 0
uqrep21_10,12: x21,10 + x21,12 - x21,21 <= 0
uqrep21_10,23: x21,10 + x21,23 - x21,21 <= 0
uqrep21_12,15: x21,12 + x21,15 - x21,21 <= 0
uqrep21_15,23: x21,15 + x21,23 - x21,21 <= 0
uqrep22_8,13: x22,8 + x22,13 - x22,22 <= 0
uqrep22_8,18: x22,8 + x22,18 - x22,22 <= 0
uqrep22_8,24: x22,8 + x22,24 - x22,22 <= 0
uqrep22_13,16: x22,13 + x22,16 - x22,22 <= 0
uqrep22_13,18: x22,13 + x22,18 - x22,22 <= 0
uqrep22_13,24: x22,13 + x22,24 - x22,22 <= 0
uqrep22_16,18: x22,16 + x22,18 - x22,22 <= 0
uqrep22_16,24: x22,16 + x22,24 - x22,22 <= 0
uqrep22_16,28: x22,16 + x22,28 - x22,22 <= 0
uqrep22_18,28: x22,18 + x22,28 - x22,22 <= 0
uqrep23_4,11: x23,4 + x23,11 - x23,23 <= 0
uqrep23_4,12: x23,4 + x23,12 - x23,23 <= 0
uqrep23_4,21: x23,4 + x23,21 - x23,23 <= 0
uqrep23_11,12: x23,11 + x23,12 - x23,23 <= 0
uqrep23_11,17: x23,11 + x23,17 - x23,23 <= 0
uqrep23_11,21: x23,11 + x23,21 - x23,23 <= 0
uqrep23_12,17: x23,12 + x23,17 - x23,23 <= 0
uqrep23_21,17: x23,21 + x23,17 - x23,23 <= 0
uqrep24_1,2: x24,1 + x24,2 - x24,24 <= 0
uqrep24_1,5: x24,1 + x24,5 - x24,24 <= 0
uqrep24_1,6: x24,1 + x24,6 - x24,24 <= 0
uqrep24_1,7: x24,1 + x24,7 - x24,24 <= 0
uqrep24_1,9: x24,1 + x24,9 - x24,24 <= 0
uqrep24_1,11: x24,1 + x24,11 - x24,24 <= 0
uqrep24_1,18: x24,1 + x24,18 - x24,24 <= 0
uqrep24_1,19: x24,1 + x24,19 - x24,24 <= 0
uqrep24_1,22: x24,1 + x24,22 - x24,24 <= 0
uqrep24_1,25: x24,1 + x24,25 - x24,24 <= 0
uqrep24_1,26: x24,1 + x24,26 - x24,24 <= 0
uqrep24_1,28: x24,1 + x24,28 - x24,24 <= 0
uqrep24_1,29: x24,1 + x24,29 - x24,24 <= 0
uqrep24_2,4: x24,2 + x24,4 - x24,24 <= 0
uqrep24_2,5: x24,2 + x24,5 - x24,24 <= 0
uqrep24_2,7: x24,2 + x24,7 - x24,24 <= 0
uqrep24_2,9: x24,2 + x24,9 - x24,24 <= 0
uqrep24_2,19: x24,2 + x24,19 - x24,24 <= 0
uqrep24_2,22: x24,2 + x24,22 - x24,24 <= 0
uqrep24_2,25: x24,2 + x24,25 - x24,24 <= 0
uqrep24_2,26: x24,2 + x24,26 - x24,24 <= 0
uqrep24_2,29: x24,2 + x24,29 - x24,24 <= 0
uqrep24_4,5: x24,4 + x24,5 - x24,24 <= 0
uqrep24_4,6: x24,4 + x24,6 - x24,24 <= 0
uqrep24_4,7: x24,4 + x24,7 - x24,24 <= 0
uqrep24_4,9: x24,4 + x24,9 - x24,24 <= 0
uqrep24_4,11: x24,4 + x24,11 - x24,24 <= 0
uqrep24_4,19: x24,4 + x24,19 - x24,24 <= 0
uqrep24_4,22: x24,4 + x24,22 - x24,24 <= 0
uqrep24_4,26: x24,4 + x24,26 - x24,24 <= 0
uqrep24_4,28: x24,4 + x24,28 - x24,24 <= 0
uqrep24_4,29: x24,4 + x24,29 - x24,24 <= 0
uqrep24_5,6: x24,5 + x24,6 - x24,24 <= 0
uqrep24_5,11: x24,5 + x24,11 - x24,24 <= 0
uqrep24_5,18: x24,5 + x24,18 - x24,24 <= 0
uqrep24_5,19: x24,5 + x24,19 - x24,24 <= 0
uqrep24_5,22: x24,5 + x24,22 - x24,24 <= 0
uqrep24_5,26: x24,5 + x24,26 - x24,24 <= 0
uqrep24_5,28: x24,5 + x24,28 - x24,24 <= 0
uqrep24_5,29: x24,5 + x24,29 - x24,24 <= 0
uqrep24_6,7: x24,6 + x24,7 - x24,24 <= 0
uqrep24_6,9: x24,6 + x24,9 - x24,24 <= 0
uqrep24_6,11: x24,6 + x24,11 - x24,24 <= 0
uqrep24_6,19: x24,6 + x24,19 - x24,24 <= 0
uqrep24_6,22: x24,6 + x24,22 - x24,24 <= 0
uqrep24_6,25: x24,6 + x24,25 - x24,24 <= 0
uqrep24_6,26: x24,6 + x24,26 - x24,24 <= 0
uqrep24_6,28: x24,6 + x24,28 - x24,24 <= 0
uqrep24_7,9: x24,7 + x24,9 - x24,24 <= 0
uqrep24_7,11: x24,7 + x24,11 - x24,24 <= 0
uqrep24_7,18: x24,7 + x24,18 - x24,24 <= 0
uqrep24_7,22: x24,7 + x24,22 - x24,24 <= 0
uqrep24_7,25: x24,7 + x24,25 - x24,24 <= 0
uqrep24_7,26: x24,7 + x24,26 - x24,24 <= 0
uqrep24_7,28: x24,7 + x24,28 - x24,24 <= 0
uqrep24_7,29: x24,7 + x24,29 - x24,24 <= 0
uqrep24_9,19: x24,9 + x24,19 - x24,24 <= 0
uqrep24_9,22: x24,9 + x24,22 - x24,24 <= 0
uqrep24_9,25: x24,9 + x24,25 - x24,24 <= 0
uqrep24_9,28: x24,9 + x24,28 - x24,24 <= 0
uqrep24_9,29: x24,9 + x24,29 - x24,24 <= 0
uqrep24_11,19: x24,11 + x24,19 - x24,24 <= 0
uqrep24_11,22: x24,11 + x24,22 - x24,24 <= 0
uqrep24_11,25: x24,11 + x24,25 - x24,24 <= 0
uqrep24_11,26: x24,11 + x24,26 - x24,24 <= 0
uqrep24_11,28: x24,11 + x24,28 - x24,24 <= 0
uqrep24_11,29: x24,11 + x24,29 - x24,24 <= 0
uqrep24_18,19: x24,18 + x24,19 - x24,24 <= 0
uqrep24_18,25: x24,18 + x24,25 - x24,24 <= 0
uqrep24_18,26: x24,18 + x24,26 - x24,24 <= 0
uqrep24_18,28: x24,18 + x24,28 - x24,24 <= 0
uqrep24_19,22: x24,19 + x24,22 - x24,24 <= 0
uqrep24_19,25: x24,19 + x24,25 - x24,24 <= 0
uqrep24_22,25: x24,22 + x24,25 - x24,24 <= 0
uqrep24_22,26: x24,22 + x24,26 - x24,24 <= 0
uqrep24_22,29: x24,22 + x24,29 - x24,24 <= 0
uqrep24_25,26: x24,25 + x24,26 - x24,24 <= 0
uqrep24_25,28: x24,25 + x24,28 - x24,24 <= 0
uqrep24_25,29: x24,25 + x24,29 - x24,24 <= 0
uqrep24_26,29: x24,26 + x24,29 - x24,24 <= 0
uqrep24_28,29: x24,28 + x24,29 - x24,24 <= 0
uqrep25_4,5: x25,4 + x25,5 - x25,25 <= 0
uqrep25_4,8: x25,4 + x25,8 - x25,25 <= 0
uqrep25_4,10: x25,4 + x25,10 - x25,25 <= 0
uqrep25_4,15: x25,4 + x25,15 - x25,25 <= 0
uqrep25_5,13: x25,5 + x25,13 - x25,25 <= 0
uqrep25_5,15: x25,5 + x25,15 - x25,25 <= 0
uqrep25_5,17: x25,5 + x25,17 - x25,25 <= 0
uqrep25_8,10: x25,8 + x25,10 - x25,25 <= 0
uqrep25_8,13: x25,8 + x25,13 - x25,25 <= 0
uqrep25_8,15: x25,8 + x25,15 - x25,25 <= 0
uqrep25_8,17: x25,8 + x25,17 - x25,25 <= 0
uqrep25_8,24: x25,8 + x25,24 - x25,25 <= 0
uqrep25_10,13: x25,10 + x25,13 - x25,25 <= 0
uqrep25_10,17: x25,10 + x25,17 - x25,25 <= 0
uqrep25_10,24: x25,10 + x25,24 - x25,25 <= 0
uqrep25_13,15: x25,13 + x25,15 - x25,25 <= 0
uqrep25_13,24: x25,13 + x25,24 - x25,25 <= 0
uqrep25_15,17: x25,15 + x25,17 - x25,25 <= 0
uqrep25_15,24: x25,15 + x25,24 - x25,25 <= 0
uqrep25_17,24: x25,17 + x25,24 - x25,25 <= 0
uqrep26_8,9: x26,8 + x26,9 - x26,26 <= 0
uqrep26_8,19: x26,8 + x26,19 - x26,26 <= 0
uqrep26_8,24: x26,8 + x26,24 - x26,26 <= 0
uqrep26_9,19: x26,9 + x26,19 - x26,26 <= 0
uqrep26_9,28: x26,9 + x26,28 - x26,26 <= 0
uqrep27_3,17: x27,3 + x27,17 - x27,27 <= 0
uqrep27_3,19: x27,3 + x27,19 - x27,27 <= 0
uqrep27_3,29: x27,3 + x27,29 - x27,27 <= 0
uqrep27_17,19: x27,17 + x27,19 - x27,27 <= 0
uqrep27_17,29: x27,17 + x27,29 - x27,27 <= 0
uqrep28_2,3: x28,2 + x28,3 - x28,28 <= 0
uqrep28_2,8: x28,2 + x28,8 - x28,28 <= 0
uqrep28_2,19: x28,2 + x28,19 - x28,28 <= 0
uqrep28_2,22: x28,2 + x28,22 - x28,28 <= 0
uqrep28_2,26: x28,2 + x28,26 - x28,28 <= 0
uqrep28_3,8: x28,3 + x28,8 - x28,28 <= 0
uqrep28_3,19: x28,3 + x28,19 - x28,28 <= 0
uqrep28_3,22: x28,3 + x28,22 - x28,28 <= 0
uqrep28_3,24: x28,3 + x28,24 - x28,28 <= 0
uqrep28_3,26: x28,3 + x28,26 - x28,28 <= 0
uqrep28_8,13: x28,8 + x28,13 - x28,28 <= 0
uqrep28_8,19: x28,8 + x28,19 - x28,28 <= 0
uqrep28_8,24: x28,8 + x28,24 - x28,28 <= 0
uqrep28_13,19: x28,13 + x28,19 - x28,28 <= 0
uqrep28_13,24: x28,13 + x28,24 - x28,28 <= 0
uqrep28_13,26: x28,13 + x28,26 - x28,28 <= 0
uqrep28_19,22: x28,19 + x28,22 - x28,28 <= 0
uqrep28_22,26: x28,22 + x28,26 - x28,28 <= 0
uqrep29_24,27: x29,24 + x29,27 - x29,29 <= 0
uqrep29_19,6: x29,19 + x29,6 - x29,29 <= 0
uqrep29_19,18: x29,19 + x29,18 - x29,29 <= 0
uqrep29_18,27: x29,18 + x29,27 - x29,29 <= 0
uqrep29_27,6: x29,27 + x29,6 - x29,29 <= 0
Binary
x0,0 x0,4 x0,5 x0,6 x0,10 x0,12 x0,13 x0,21
x1,1 x1,4 x1,10 x1,17 x1,24
x2,2 x2,6 x2,11 x2,13 x2,14 x2,18 x2,24 x2,28
x3,3 x3,4 x3,10 x3,13 x3,27 x3,28
x4,0 x4,1 x4,3 x4,4 x4,13 x4,17 x4,18 x4,23 x4,24 x4,25
x5,0 x5,5 x5,7 x5,8 x5,9 x5,10 x5,24 x5,25
x6,0 x6,2 x6,6 x6,18 x6,24 x6,29
x7,5 x7,7 x7,8 x7,19 x7,24
x8,5 x8,7 x8,8 x8,16 x8,22 x8,25 x8,26 x8,28
x9,5 x9,9 x9,11 x9,13 x9,18 x9,20 x9,21 x9,24 x9,26
x10,0 x10,1 x10,3 x10,5 x10,10 x10,15 x10,16 x10,18 x10,21 x10,25
x11,2 x11,9 x11,11 x11,18 x11,23 x11,24
x12,0 x12,12 x12,14 x12,19 x12,20 x12,21 x12,23
x13,0 x13,2 x13,3 x13,4 x13,9 x13,13 x13,17 x13,22 x13,25 x13,28
x14,2 x14,12 x14,14 x14,17 x14,18
x15,10 x15,15 x15,20 x15,21 x15,25
x16,8 x16,10 x16,16 x16,17 x16,20 x16,22
x17,1 x17,4 x17,13 x17,14 x17,16 x17,17 x17,23 x17,25 x17,27
x18,2 x18,4 x18,6 x18,9 x18,10 x18,11 x18,14 x18,18 x18,20 x18,22 x18,24 x18,29
x19,7 x19,12 x19,19 x19,24 x19,26 x19,27 x19,28 x19,29
x20,9 x20,12 x20,15 x20,16 x20,18 x20,20
x21,0 x21,9 x21,10 x21,12 x21,15 x21,21 x21,23
x22,8 x22,13 x22,16 x22,18 x22,22 x22,24 x22,28
x23,4 x23,11 x23,12 x23,17 x23,21 x23,23
x24,1 x24,2 x24,4 x24,5 x24,6 x24,7 x24,9 x24,11 x24,18 x24,19 x24,22 x24,24 x24,25 x24,26 x24,28 x24,29
x25,4 x25,5 x25,8 x25,10 x25,13 x25,15 x25,17 x25,24 x25,25
x26,8 x26,9 x26,19 x26,24 x26,26 x26,28
x27,3 x27,17 x27,19 x27,27 x27,29
x28,2 x28,3 x28,8 x28,13 x28,19 x28,22 x28,24 x28,26 x28,28
x29,6 x29,18 x29,19 x29,24 x29,27 x29,29
End